(set-logic LIA)
(set-info :license "https://creativecommons.org/licenses/by/4.0/")
(set-info :status "sat")
(set-info :smt-lib-version "2.6")
(declare-fun c_old(~a3~0) () Int)
(declare-fun c_~a3~0 () Int)
(assert
  (and
    (or
      (exists ((v_~a3~0_2177 Int) (quotient_0 Int))
        (and
          (<= (* (- 1) v_~a3~0_2177) (- 210150))
          (<= (+ (* 1 c_~a3~0) (* (- 1) quotient_0)) 219839)
          (<= (+ (* (- 1) c_old(~a3~0)) (* 1 v_~a3~0_2177)) 0)
          (<= (+ (* (- 1) v_~a3~0_2177) (* 5 quotient_0)) (- 210150))
          (<= (+ (* 1 v_~a3~0_2177) (* (- 5) quotient_0)) 210154)
        )
      )
      (exists ((v_~a3~0_2177 Int) (reminder_1 Int) (quotient_2 Int))
        (and
          (<= (* 1 v_~a3~0_2177) 210149)
          (<= (+ (* (- 1) c_old(~a3~0)) (* 1 v_~a3~0_2177)) 0)
          (not
            (= (* 1 reminder_1) 0)
          )
          (<= (+ (* 1 c_~a3~0) (* (- 1) quotient_2)) 219840)
          (<= (+ (* (- 1) v_~a3~0_2177) (* 5 reminder_1)) 0)
          (<= (+ (* 1 v_~a3~0_2177) (* (- 5) reminder_1)) 4)
          (<= (+ (* (- 1) v_~a3~0_2177) (* 5 quotient_2)) (- 210150))
          (<= (+ (* 1 v_~a3~0_2177) (* (- 5) quotient_2)) 210154)
        )
      )
      (exists ((v_~a3~0_2177 Int) (reminder_3 Int) (quotient_4 Int))
        (and
          (= (* 1 reminder_3) 0)
          (<= (+ (* 1 c_~a3~0) (* (- 1) quotient_4)) 219839)
          (<= (+ (* (- 1) c_old(~a3~0)) (* 1 v_~a3~0_2177)) 0)
          (<= (+ (* (- 1) v_~a3~0_2177) (* 5 reminder_3)) 0)
          (<= (+ (* 1 v_~a3~0_2177) (* (- 5) reminder_3)) 4)
          (<= (+ (* (- 1) v_~a3~0_2177) (* 5 quotient_4)) (- 210150))
          (<= (+ (* 1 v_~a3~0_2177) (* (- 5) quotient_4)) 210154)
        )
      )
    )
    (not
      (or
        (exists ((v_prenex_6 Int) (quotient_5 Int))
          (and
            (<= (* (- 1) v_prenex_6) (- 600335))
            (<= (+ (* (- 1) c_old(~a3~0)) (* 1 v_prenex_6)) 0)
            (<= (+ (* 1 c_~a3~0) (* (- 1) quotient_5)) (- 125944))
            (<= (+ (* (- 1) v_prenex_6) (* 5 quotient_5)) (- 600335))
            (<= (+ (* 1 v_prenex_6) (* (- 5) quotient_5)) 600339)
          )
        )
        (exists ((v_~a3~0_2178 Int) (reminder_6 Int) (quotient_7 Int))
          (and
            (= (* 1 reminder_6) 0)
            (<= (+ (* (- 1) c_old(~a3~0)) (* 1 v_~a3~0_2178)) 0)
            (<= (+ (* 1 c_~a3~0) (* (- 1) quotient_7)) (- 125944))
            (<= (+ (* (- 1) v_~a3~0_2178) (* 5 reminder_6)) 0)
            (<= (+ (* 1 v_~a3~0_2178) (* (- 5) reminder_6)) 4)
            (<= (+ (* (- 1) v_~a3~0_2178) (* 5 quotient_7)) (- 600335))
            (<= (+ (* 1 v_~a3~0_2178) (* (- 5) quotient_7)) 600339)
          )
        )
        (exists ((v_prenex_5 Int) (quotient_8 Int) (reminder_9 Int))
          (and
            (<= (* 1 v_prenex_5) 600334)
            (<= (+ (* 1 c_~a3~0) (* (- 1) quotient_8)) (- 125943))
            (<= (+ (* (- 1) c_old(~a3~0)) (* 1 v_prenex_5)) 0)
            (not
              (= (* 1 reminder_9) 0)
            )
            (<= (+ (* (- 1) v_prenex_5) (* 5 quotient_8)) (- 600335))
            (<= (+ (* 1 v_prenex_5) (* (- 5) quotient_8)) 600339)
            (<= (+ (* (- 1) v_prenex_5) (* 5 reminder_9)) 0)
            (<= (+ (* 1 v_prenex_5) (* (- 5) reminder_9)) 4)
          )
        )
      )
    )
  )
)
(check-sat)

